
Welcome to IBM(R) ILOG(R) CPLEX(R) Interactive Optimizer 22.1.1.0
  with Simplex, Mixed Integer & Barrier Optimizers
5725-A06 5725-A29 5724-Y48 5724-Y49 5724-Y54 5724-Y55 5655-Y21
Copyright IBM Corp. 1988, 2022.  All Rights Reserved.

Type 'help' for a list of available commands.
Type 'help' followed by a command name for more
information on commands.

CPLEX> Selected objective sense:  MINIMIZE
Selected objective  name:  00000000
Selected RHS        name:  RHS1
Selected bound      name:  BOUND
Problem 'ee.mps' read.
Read time = 0.03 sec. (3.17 ticks)
CPLEX> New value for time limit in seconds: 7200
CPLEX> New value for parallel optimization mode: -1
CPLEX> New value for default parallel thread count: 40
CPLEX> New value for mixed integer optimality gap tolerance: 1e-13
CPLEX> Version identifier: 22.1.1.0 | 2022-11-28 | 9160aff4d
CPXPARAM_Threads                                 40
CPXPARAM_Parallel                                -1
CPXPARAM_TimeLimit                               7200
CPXPARAM_MIP_Tolerances_MIPGap                   1e-13
Found incumbent of value 0.000000 after 0.00 sec. (0.31 ticks)
Tried aggregator 4 times.
MIP Presolve eliminated 258 rows and 3267 columns.
MIP Presolve modified 6042 coefficients.
Aggregator did 777 substitutions.
Reduced MIP has 3495 rows, 7238 columns, and 26706 nonzeros.
Reduced MIP has 7238 binaries, 0 generals, 0 SOSs, and 0 indicators.
Presolve time = 0.08 sec. (85.68 ticks)
Probing time = 0.03 sec. (5.29 ticks)
Tried aggregator 1 time.
Detecting symmetries...
Reduced MIP has 3495 rows, 7238 columns, and 26706 nonzeros.
Reduced MIP has 7238 binaries, 0 generals, 0 SOSs, and 0 indicators.
Presolve time = 0.02 sec. (20.37 ticks)
Probing fixed 60 vars, tightened 0 bounds.
Probing time = 0.06 sec. (29.13 ticks)
Clique table members: 17330.
MIP emphasis: balance optimality and feasibility.
MIP search method: dynamic search.
Parallel mode: opportunistic, using up to 40 threads.
Root relaxation solution time = 0.07 sec. (70.88 ticks)

        Nodes                                         Cuts/
   Node  Left     Objective  IInf  Best Integer    Best Bound    ItCnt     Gap

*     0+    0                            0.0000  -1.54000e+13              --- 
*     0+    0                      -3.39000e+12  -1.54000e+13           354.28%
*     0+    0                      -6.99000e+12  -1.54000e+13           120.31%
*     0+    0                      -7.20000e+12  -1.54000e+13           113.89%
      0     0  -1.53900e+13    48  -7.20000e+12  -1.53900e+13     1572  113.75%
*     0+    0                      -1.53900e+13  -1.53900e+13             0.00%
      0     0  -1.53900e+13   102  -1.53900e+13      Cuts: 72     2013    0.00%
*     0+    0                      -1.53900e+13  -1.53900e+13             0.00%
      0     0  -1.53900e+13   170  -1.53900e+13      Cuts: 69     2466    0.00%
*     0+    0                      -1.53900e+13  -1.53900e+13             0.00%
      0     2  -1.53900e+13   151  -1.53900e+13  -1.53900e+13     2500    0.00%
Elapsed time = 1.55 sec. (791.58 ticks, tree = 0.02 MB, solutions = 7)
    141   127  -1.53900e+13   172  -1.53900e+13  -1.53900e+13    40718    0.00%
    854    99  -1.53900e+13   184  -1.53900e+13  -1.53900e+13    30897    0.00%
   1586   348  -1.53900e+13   217  -1.53900e+13  -1.53900e+13    90055    0.00%
   2302   322  -1.53900e+13   135  -1.53900e+13  -1.53900e+13    84206    0.00%
   2862   861  -1.53900e+13   169  -1.53900e+13  -1.53900e+13   195332    0.00%
   3243   854  -1.53900e+13   129  -1.53900e+13  -1.53900e+13   238656    0.00%
   3734   876  -1.53900e+13    21  -1.53900e+13  -1.53900e+13   197996    0.00%
   4250   856  -1.53900e+13   145  -1.53900e+13  -1.53900e+13   231365    0.00%
   4846   886        cutoff        -1.53900e+13  -1.53900e+13   265067    0.00%
   7553  1823  -1.53900e+13   128  -1.53900e+13  -1.53900e+13   450292    0.00%
Elapsed time = 7.45 sec. (3895.94 ticks, tree = 27.85 MB, solutions = 12)
   9750  2532  -1.53900e+13   152  -1.53900e+13  -1.53900e+13   576584    0.00%
  11180  3123  -1.53900e+13   194  -1.53900e+13  -1.53900e+13   687694    0.00%

Performing restart 1

Repeating presolve.
Tried aggregator 2 times.
MIP Presolve eliminated 528 rows and 1329 columns.
MIP Presolve added 2 rows and 0 columns.
MIP Presolve modified 2113 coefficients.
Aggregator did 254 substitutions.
Reduced MIP has 2651 rows, 5650 columns, and 20022 nonzeros.
Reduced MIP has 5650 binaries, 0 generals, 0 SOSs, and 0 indicators.
Presolve time = 0.08 sec. (71.64 ticks)
Tried aggregator 2 times.
MIP Presolve eliminated 43 rows and 90 columns.
MIP Presolve added 4 rows and 0 columns.
MIP Presolve modified 6 coefficients.
Aggregator did 14 substitutions.
Reduced MIP has 2598 rows, 5545 columns, and 19623 nonzeros.
Reduced MIP has 5545 binaries, 0 generals, 0 SOSs, and 0 indicators.
Presolve time = 0.04 sec. (33.59 ticks)
Tried aggregator 1 time.
MIP Presolve eliminated 8 rows and 10 columns.
Reduced MIP has 2590 rows, 5535 columns, and 19595 nonzeros.
Reduced MIP has 5535 binaries, 0 generals, 0 SOSs, and 0 indicators.
Presolve time = 0.02 sec. (18.69 ticks)
Represolve time = 0.31 sec. (203.74 ticks)
  11554     0  -1.53900e+13   204  -1.53900e+13      Cuts: 46   879556    0.00%
  11554     0  -1.53900e+13   261  -1.53900e+13      Cuts: 34   879876    0.00%
  11554     0  -1.53900e+13   222  -1.53900e+13      Cuts: 23   880161    0.00%
  11554     0  -1.53900e+13   240  -1.53900e+13      Cuts: 43   880302    0.00%
  11554     0  -1.53900e+13   297  -1.53900e+13      Cuts: 30   880539    0.00%
  11554     0  -1.53900e+13   300  -1.53900e+13      Cuts: 30   880689    0.00%
  11554     0  -1.53900e+13   319  -1.53900e+13      Cuts: 17   880871    0.00%
  11554     0  -1.53900e+13   347  -1.53900e+13      Cuts: 40   881156    0.00%
  11554     0  -1.53900e+13   330  -1.53900e+13      Cuts: 26   881320    0.00%
  11554     0  -1.53900e+13   331  -1.53900e+13      Cuts: 22   881492    0.00%
  11554     0  -1.53900e+13   336  -1.53900e+13      Cuts: 46   881625    0.00%
  11554     0  -1.53900e+13   324  -1.53900e+13      Cuts: 25   881742    0.00%
  11554     0  -1.53900e+13   352  -1.53900e+13      Cuts: 13   881809    0.00%
  11554     0  -1.53900e+13   405  -1.53900e+13      Cuts: 18   881995    0.00%
  11554     0  -1.53900e+13   336  -1.53900e+13      Cuts: 15   882157    0.00%
  11554     0  -1.53900e+13   365  -1.53900e+13      Cuts: 22   882272    0.00%
  11554    32        cutoff        -1.53900e+13  -1.53900e+13   892912    0.00%
  12502    59  -1.53900e+13   168  -1.53900e+13  -1.53900e+13   942146    0.00%
  14743    64  -1.53900e+13   122  -1.53900e+13  -1.53900e+13   977381    0.00%
  17953    99  -1.53900e+13    61  -1.53900e+13  -1.53900e+13  1027547    0.00%
  22804   571  -1.53900e+13   138  -1.53900e+13  -1.53900e+13  1207326    0.00%
  27031  1596  -1.53900e+13    93  -1.53900e+13  -1.53900e+13  1371366    0.00%
  31011  3796        cutoff        -1.53900e+13  -1.53900e+13  1730343    0.00%
  35727  3369  -1.53900e+13    34  -1.53900e+13  -1.53900e+13  1655587    0.00%
Elapsed time = 27.82 sec. (16800.24 ticks, tree = 56.44 MB, solutions = 12)
  41492  4440        cutoff        -1.53900e+13  -1.53900e+13  2032897    0.00%
  46521  4443        cutoff        -1.53900e+13  -1.53900e+13  2068428    0.00%
  51065  4417        cutoff        -1.53900e+13  -1.53900e+13  1993481    0.00%
  55517  4089        cutoff        -1.53900e+13  -1.53900e+13  2324352    0.00%
  59285  1873        cutoff        -1.53900e+13  -1.53900e+13  2518461    0.00%
  61108  2141        cutoff        -1.53900e+13  -1.53900e+13  2508264    0.00%

GUB cover cuts applied:  1
Clique cuts applied:  23
Cover cuts applied:  455
Mixed integer rounding cuts applied:  26
Zero-half cuts applied:  115
Gomory fractional cuts applied:  11

Root node processing (before b&c):
  Real time             =    0.87 sec. (790.05 ticks)
Parallel b&c, 40 threads:
  Real time             =   27.87 sec. (22338.75 ticks)
  Sync time (average)   =    2.35 sec.
  Wait time (average)   =    0.14 sec.
                          ------------
Total (root+branch&cut) =   28.74 sec. (23128.80 ticks)

Solution pool: 12 solutions saved.

MIP - Integer optimal solution:  Objective = -1.5389999687e+13
Solution time =   28.87 sec.  Iterations = 2558932  Nodes = 61343
Deterministic time = 23128.83 ticks  (801.23 ticks/sec)

CPLEX> Solution 'p13' written to file 'ee.sol'.
CPLEX> 